100
200
159
159
158
157
156
156
154
151
147
147
146
145
144
141
139
138
135
135
134
134
133
133
131
129
129
128
127
126
126
125
124
120
120
120
119
119
117
117
117
114
114
112
111
110
110
109
107
107
106
104
104
104
103
101
100
98
98
94
92
92
91
89
89
87
83
80
79
78
78
74
74
72
71
69
69
67
67
66
66
64
60
56
55
53
53
51
51
51
51
50
49
48
47
47
47
47
45
43
43
42
